c weights 1 1 1 1 1.0 1 0.0 1 1 1 1 1 0.0 1 1.0 1 1 1 1 1 1.0 1 0.0 1 1 1 1 1 0.0 1 1.0 1 1 1 1 1 1.0 1 0.0 1 1 1 1 1 0.0 1 1.0 1 1 1 1 1 1.0 1 0.0 1 1 1 1 1 0.0 1 1.0 1 1 1 1 1 1.0 1 0.0 1 1 1 1 1 0.0 1 1.0 1 1 1 1 1 1.0 1 0.0 1 1 1 1 1 0.0 1 1.0 1 1 1 1 1 1.0 1 0.0 1 1 1 1 1 0.0 1 1.0 1 1 1 1 1 1.0 1 0.0 1 1 1 1 1 1 1 1 1 1 1 1 1 0.0 1 1.0 1 0.0 1 1.0 1 0.0 1 1.0 1 0.0 1 1.0 1 0.0 1 1.0 1 0.0 1 1.0 1 0.0 1 1.0 1 1 1 1 1 1.0 1 0.0 1 1 1 1 1 1 1 1 1 0.0 1 1.0 1 0.0 1 1.0 1 0.0 1 1.0 1 1 1 1 1 1.0 1 0.0 1 1 1 1 1 1 1 1 1 0.0 1 1.0 1 0.0 1 1.0 1 0.0 1 1.0 1 1 1 1 1 1.0 1 0.0 1 1 1 1 1 0.0 1 1.0 1 1 1 1 1 1.0 1 0.0 1 1 1 1 1 0.0 1 1.0 1 1.0 1 0.0 1 0.7 1 0.3 1 1.0 1 0.0 1 0.7 1 0.3 1 1.0 1 0.0 1 0.7 1 0.3 1 1.0 1 0.0 1 1.0 1 0.0 1 1.0 1 0.0 1 0.6 1 0.4 1 1.0 1 0.0 1 1.0 1 0.0 1 1.0 1 0.0 1 0.6 1 0.4 1 1.0 1 0.0 1 1.0 1 0.0 1 1.0 1 0.0 1 0.6 1 0.4 1 1.0 1 0.0 1 1.0 1 0.0 1 1.0 1 0.0 1 0.6 1 0.4 1 0.8 1 0.2 1 0.9 1 0.1 1 0.8 1 0.2 1 0.9 1 0.1 1 0.8 1 0.2 1 1.0 1 0.0 1 0.0 1 1.0 1 0.9 1 0.1 1 0.9 1 0.1 1 1.0 1 0.0 1 0.0 1 1.0 1
p cnf 190 525
1 2 0
-1 -2 0
-3 1 0
-4 2 0
-3 5 0
-4 5 0
3 -1 -5 0
4 -2 -5 0
-7 1 0
-8 2 0
-7 6 0
-8 6 0
7 -1 -6 0
8 -2 -6 0
9 10 0
-9 -10 0
-11 9 0
-12 10 0
-11 13 0
-12 13 0
11 -9 -13 0
12 -10 -13 0
-15 9 0
-16 10 0
-15 14 0
-16 14 0
15 -9 -14 0
16 -10 -14 0
17 18 0
-17 -18 0
-19 17 0
-20 18 0
-19 21 0
-20 21 0
19 -17 -21 0
20 -18 -21 0
-23 17 0
-24 18 0
-23 22 0
-24 22 0
23 -17 -22 0
24 -18 -22 0
25 26 0
-25 -26 0
-27 25 0
-28 26 0
-27 29 0
-28 29 0
27 -25 -29 0
28 -26 -29 0
-31 25 0
-32 26 0
-31 30 0
-32 30 0
31 -25 -30 0
32 -26 -30 0
33 34 0
-33 -34 0
-35 33 0
-36 34 0
-35 37 0
-36 37 0
35 -33 -37 0
36 -34 -37 0
-39 33 0
-40 34 0
-39 38 0
-40 38 0
39 -33 -38 0
40 -34 -38 0
41 42 0
-41 -42 0
-43 41 0
-44 42 0
-43 45 0
-44 45 0
43 -41 -45 0
44 -42 -45 0
-47 41 0
-48 42 0
-47 46 0
-48 46 0
47 -41 -46 0
48 -42 -46 0
49 50 0
-49 -50 0
-51 49 0
-52 50 0
-51 53 0
-52 53 0
51 -49 -53 0
52 -50 -53 0
-55 49 0
-56 50 0
-55 54 0
-56 54 0
55 -49 -54 0
56 -50 -54 0
57 58 0
-57 -58 0
-59 57 0
-60 58 0
-59 61 0
-60 61 0
-59 63 0
-60 63 0
-59 65 0
-60 65 0
59 -57 -61 -63 -65 0
60 -58 -61 -63 -65 0
-67 57 0
-68 58 0
-67 61 0
-68 61 0
-67 63 0
-68 63 0
-67 66 0
-68 66 0
67 -57 -61 -63 -66 0
68 -58 -61 -63 -66 0
-69 57 0
-70 58 0
-69 61 0
-70 61 0
-69 64 0
-70 64 0
-69 65 0
-70 65 0
69 -57 -61 -64 -65 0
70 -58 -61 -64 -65 0
-71 57 0
-72 58 0
-71 61 0
-72 61 0
-71 64 0
-72 64 0
-71 66 0
-72 66 0
71 -57 -61 -64 -66 0
72 -58 -61 -64 -66 0
-73 57 0
-74 58 0
-73 62 0
-74 62 0
-73 63 0
-74 63 0
-73 65 0
-74 65 0
73 -57 -62 -63 -65 0
74 -58 -62 -63 -65 0
-75 57 0
-76 58 0
-75 62 0
-76 62 0
-75 63 0
-76 63 0
-75 66 0
-76 66 0
75 -57 -62 -63 -66 0
76 -58 -62 -63 -66 0
-77 57 0
-78 58 0
-77 62 0
-78 62 0
-77 64 0
-78 64 0
-77 65 0
-78 65 0
77 -57 -62 -64 -65 0
78 -58 -62 -64 -65 0
-79 57 0
-80 58 0
-79 62 0
-80 62 0
-79 64 0
-80 64 0
-79 66 0
-80 66 0
79 -57 -62 -64 -66 0
80 -58 -62 -64 -66 0
81 82 0
-81 -82 0
-83 81 0
-84 82 0
-83 85 0
-84 85 0
-83 87 0
-84 87 0
83 -81 -85 -87 0
84 -82 -85 -87 0
-89 81 0
-90 82 0
-89 85 0
-90 85 0
-89 88 0
-90 88 0
89 -81 -85 -88 0
90 -82 -85 -88 0
-91 81 0
-92 82 0
-91 86 0
-92 86 0
-91 87 0
-92 87 0
91 -81 -86 -87 0
92 -82 -86 -87 0
-93 81 0
-94 82 0
-93 86 0
-94 86 0
-93 88 0
-94 88 0
93 -81 -86 -88 0
94 -82 -86 -88 0
95 96 0
-95 -96 0
-97 95 0
-98 96 0
-97 99 0
-98 99 0
-97 101 0
-98 101 0
97 -95 -99 -101 0
98 -96 -99 -101 0
-103 95 0
-104 96 0
-103 99 0
-104 99 0
-103 102 0
-104 102 0
103 -95 -99 -102 0
104 -96 -99 -102 0
-105 95 0
-106 96 0
-105 100 0
-106 100 0
-105 101 0
-106 101 0
105 -95 -100 -101 0
106 -96 -100 -101 0
-107 95 0
-108 96 0
-107 100 0
-108 100 0
-107 102 0
-108 102 0
107 -95 -100 -102 0
108 -96 -100 -102 0
109 110 0
-109 -110 0
-111 109 0
-112 110 0
-111 113 0
-112 113 0
111 -109 -113 0
112 -110 -113 0
-115 109 0
-116 110 0
-115 114 0
-116 114 0
115 -109 -114 0
116 -110 -114 0
117 118 0
-117 -118 0
-119 117 0
-120 118 0
-119 121 0
-120 121 0
119 -117 -121 0
120 -118 -121 0
-123 117 0
-124 118 0
-123 122 0
-124 122 0
123 -117 -122 0
124 -118 -122 0
61 62 0
-61 -62 0
-125 61 0
-126 62 0
-125 1 0
-126 1 0
125 -61 -1 0
126 -62 -1 0
-127 61 0
-128 62 0
-127 2 0
-128 2 0
127 -61 -2 0
128 -62 -2 0
113 114 0
-113 -114 0
-129 113 0
-130 114 0
-129 9 0
-130 9 0
129 -113 -9 0
130 -114 -9 0
-131 113 0
-132 114 0
-131 10 0
-132 10 0
131 -113 -10 0
132 -114 -10 0
121 122 0
-121 -122 0
-133 121 0
-134 122 0
-133 17 0
-134 17 0
133 -121 -17 0
134 -122 -17 0
-135 121 0
-136 122 0
-135 18 0
-136 18 0
135 -121 -18 0
136 -122 -18 0
87 88 0
-87 -88 0
-137 87 0
-138 88 0
-137 117 0
-138 117 0
-137 41 0
-138 41 0
137 -87 -117 -41 0
138 -88 -117 -41 0
-139 87 0
-140 88 0
-139 117 0
-140 117 0
-139 42 0
-140 42 0
139 -87 -117 -42 0
140 -88 -117 -42 0
-141 87 0
-142 88 0
-141 118 0
-142 118 0
-141 41 0
-142 41 0
141 -87 -118 -41 0
142 -88 -118 -41 0
-143 87 0
-144 88 0
-143 118 0
-144 118 0
-143 42 0
-144 42 0
143 -87 -118 -42 0
144 -88 -118 -42 0
65 66 0
-65 -66 0
-145 65 0
-146 66 0
-145 81 0
-146 81 0
-145 25 0
-146 25 0
145 -65 -81 -25 0
146 -66 -81 -25 0
-147 65 0
-148 66 0
-147 81 0
-148 81 0
-147 26 0
-148 26 0
147 -65 -81 -26 0
148 -66 -81 -26 0
-149 65 0
-150 66 0
-149 82 0
-150 82 0
-149 25 0
-150 25 0
149 -65 -82 -25 0
150 -66 -82 -25 0
-151 65 0
-152 66 0
-151 82 0
-152 82 0
-151 26 0
-152 26 0
151 -65 -82 -26 0
152 -66 -82 -26 0
99 100 0
-99 -100 0
-153 99 0
-154 100 0
-153 109 0
-154 109 0
-153 49 0
-154 49 0
153 -99 -109 -49 0
154 -100 -109 -49 0
-155 99 0
-156 100 0
-155 109 0
-156 109 0
-155 50 0
-156 50 0
155 -99 -109 -50 0
156 -100 -109 -50 0
-157 99 0
-158 100 0
-157 110 0
-158 110 0
-157 49 0
-158 49 0
157 -99 -110 -49 0
158 -100 -110 -49 0
-159 99 0
-160 100 0
-159 110 0
-160 110 0
-159 50 0
-160 50 0
159 -99 -110 -50 0
160 -100 -110 -50 0
63 64 0
-63 -64 0
-161 63 0
-162 64 0
-161 95 0
-162 95 0
-161 33 0
-162 33 0
161 -63 -95 -33 0
162 -64 -95 -33 0
-163 63 0
-164 64 0
-163 95 0
-164 95 0
-163 34 0
-164 34 0
163 -63 -95 -34 0
164 -64 -95 -34 0
-165 63 0
-166 64 0
-165 96 0
-166 96 0
-165 33 0
-166 33 0
165 -63 -96 -33 0
166 -64 -96 -33 0
-167 63 0
-168 64 0
-167 96 0
-168 96 0
-167 34 0
-168 34 0
167 -63 -96 -34 0
168 -64 -96 -34 0
5 6 0
-5 -6 0
-169 5 0
-170 6 0
169 -5 0
170 -6 0
29 30 0
-29 -30 0
-171 29 0
-172 30 0
171 -29 0
172 -30 0
13 14 0
-13 -14 0
-173 13 0
-174 14 0
173 -13 0
174 -14 0
45 46 0
-45 -46 0
-175 45 0
-176 46 0
175 -45 0
176 -46 0
21 22 0
-21 -22 0
-177 21 0
-178 22 0
177 -21 0
178 -22 0
85 86 0
-85 -86 0
-179 85 0
-180 86 0
-179 109 0
-180 109 0
179 -85 -109 0
180 -86 -109 0
-181 85 0
-182 86 0
-181 110 0
-182 110 0
181 -85 -110 0
182 -86 -110 0
37 38 0
-37 -38 0
-183 37 0
-184 38 0
183 -37 0
184 -38 0
53 54 0
-53 -54 0
-185 53 0
-186 54 0
185 -53 0
186 -54 0
101 102 0
-101 -102 0
-187 101 0
-188 102 0
-187 117 0
-188 117 0
187 -101 -117 0
188 -102 -117 0
-189 101 0
-190 102 0
-189 118 0
-190 118 0
189 -101 -118 0
190 -102 -118 0
58 0